unsat
(:max-memory          18.06
 :memory              17.91
 :nlsat-conflicts     7
 :nlsat-decisions     2
 :nlsat-learned-added 5
 :nlsat-propagations  23
 :nlsat-stages        6
 :num-allocs          7043
 :rlimit-count        3104
 :time                0.00
 :total-time          0.01)
